(set-logic QF_LIA)
(declare-fun x0 () Int)
(declare-fun x1 () Int)
(declare-fun x2 () Int)
(declare-fun x3 () Int)
(declare-fun x4 () Int)
(declare-fun x5 () Int)
(declare-fun x6 () Int)
(declare-fun x7 () Int)
(declare-fun x8 () Int)
(declare-fun x9 () Int)
(declare-fun A0 () Bool)
(declare-fun A1 () Bool)
(declare-fun A2 () Bool)
(declare-fun A3 () Bool)
(declare-fun A4 () Bool)
(declare-fun A5 () Bool)
(declare-fun A6 () Bool)
(declare-fun A7 () Bool)
(declare-fun A8 () Bool)
(declare-fun A9 () Bool)
(assert (let ((.def_0 (* (- 1) x9))) (let ((.def_1 (* 1 x0))) (let ((.def_2 (+ .def_1 .def_0))) (let ((.def_3 (< .def_2 (- 1)))) (let ((.def_4 (not .def_3))) (let ((.def_5 (* 1 x1))) (let ((.def_6 (< .def_5 (- 1)))) (let ((.def_7 (not .def_6))) (let ((.def_8 (and .def_7 .def_4))) (let ((.def_9 (not .def_8))) (let ((.def_10 (not A4))) (let ((.def_11 (not A7))) (let ((.def_12 (or .def_11 .def_10))) (let ((.def_13 (not .def_12))) (let ((.def_14 (or .def_13 .def_9))) (let ((.def_15 (not A1))) (let ((.def_16 (not A2))) (let ((.def_17 (or .def_16 .def_15))) (let ((.def_18 (not .def_17))) (let ((.def_19 (* (- 1) x8))) (let ((.def_20 (* 1 x5))) (let ((.def_21 (+ .def_20 .def_19))) (let ((.def_22 (< .def_21 (- 1)))) (let ((.def_23 (not .def_22))) (let ((.def_24 (and .def_23 A4))) (let ((.def_25 (not .def_24))) (let ((.def_26 (or .def_25 .def_18))) (let ((.def_27 (and .def_26 .def_14))) (let ((.def_28 (not .def_27))) (let ((.def_29 (not A0))) (let ((.def_30 (* (- 1) x4))) (let ((.def_31 (< .def_30 1))) (let ((.def_32 (not .def_31))) (let ((.def_33 (and .def_32 .def_29))) (let ((.def_34 (not .def_33))) (let ((.def_35 (not A9))) (let ((.def_36 (< .def_30 (- 1)))) (let ((.def_37 (= .def_36 .def_35))) (let ((.def_38 (not .def_37))) (let ((.def_39 (and .def_38 .def_34))) (let ((.def_40 (not A8))) (let ((.def_41 (or .def_40 .def_35))) (let ((.def_42 (* 1 x6))) (let ((.def_43 (< .def_42 1))) (let ((.def_44 (not .def_43))) (let ((.def_45 (or .def_44 .def_10))) (let ((.def_46 (and .def_45 .def_41))) (let ((.def_47 (or .def_46 .def_39))) (let ((.def_48 (not .def_47))) (let ((.def_49 (or .def_48 .def_28))) (let ((.def_50 (* (- 1) x1))) (let ((.def_51 (* 1 x8))) (let ((.def_52 (+ .def_51 .def_50))) (let ((.def_53 (< .def_52 (- 1)))) (let ((.def_54 (not .def_53))) (let ((.def_55 (and .def_54 .def_10))) (let ((.def_56 (* 1 x2))) (let ((.def_57 (+ .def_19 .def_56))) (let ((.def_58 (< .def_57 (- 1)))) (let ((.def_59 (or .def_58 A9))) (let ((.def_60 (not .def_59))) (let ((.def_61 (or .def_60 .def_55))) (let ((.def_62 (not .def_61))) (let ((.def_63 (* (- 1) x7))) (let ((.def_64 (* (- 1) x5))) (let ((.def_65 (+ .def_64 .def_63))) (let ((.def_66 (< .def_65 1))) (let ((.def_67 (not .def_66))) (let ((.def_68 (* 1 x3))) (let ((.def_69 (+ .def_42 .def_68))) (let ((.def_70 (< .def_69 (- 1)))) (let ((.def_71 (not .def_70))) (let ((.def_72 (and .def_71 .def_67))) (let ((.def_73 (* (- 1) x2))) (let ((.def_74 (< .def_73 (- 1)))) (let ((.def_75 (or A7 .def_74))) (let ((.def_76 (not .def_75))) (let ((.def_77 (or .def_76 .def_72))) (let ((.def_78 (and .def_77 .def_62))) (let ((.def_79 (not .def_78))) (let ((.def_80 (+ .def_42 .def_73))) (let ((.def_81 (< .def_80 (- 1)))) (let ((.def_82 (not .def_81))) (let ((.def_83 (* 1 x9))) (let ((.def_84 (< .def_83 (- 1)))) (let ((.def_85 (or .def_84 .def_82))) (let ((.def_86 (not .def_85))) (let ((.def_87 (not A5))) (let ((.def_88 (* 1 x7))) (let ((.def_89 (+ .def_56 .def_88))) (let ((.def_90 (< .def_89 (- 1)))) (let ((.def_91 (and .def_90 .def_87))) (let ((.def_92 (or .def_91 .def_86))) (let ((.def_93 (* (- 1) x3))) (let ((.def_94 (+ .def_0 .def_93))) (let ((.def_95 (< .def_94 1))) (let ((.def_96 (not .def_95))) (let ((.def_97 (or .def_96 A3))) (let ((.def_98 (not .def_97))) (let ((.def_99 (* (- 1) x0))) (let ((.def_100 (+ .def_99 .def_0))) (let ((.def_101 (< .def_100 (- 1)))) (let ((.def_102 (not .def_101))) (let ((.def_103 (and .def_11 .def_102))) (let ((.def_104 (= .def_103 .def_98))) (let ((.def_105 (and .def_104 .def_92))) (let ((.def_106 (or .def_105 .def_79))) (let ((.def_107 (not .def_106))) (let ((.def_108 (or .def_107 .def_49))) (let ((.def_109 (< .def_63 (- 1)))) (let ((.def_110 (not .def_109))) (let ((.def_111 (and .def_110 A0))) (let ((.def_112 (not .def_111))) (let ((.def_113 (and A0 .def_11))) (let ((.def_114 (not .def_113))) (let ((.def_115 (and .def_114 .def_112))) (let ((.def_116 (not .def_84))) (let ((.def_117 (and A2 .def_116))) (let ((.def_118 (not .def_117))) (let ((.def_119 (< .def_63 1))) (let ((.def_120 (not .def_119))) (let ((.def_121 (not A3))) (let ((.def_122 (= .def_121 .def_120))) (let ((.def_123 (and .def_122 .def_118))) (let ((.def_124 (and .def_123 .def_115))) (let ((.def_125 (= A2 A0))) (let ((.def_126 (+ .def_20 .def_88))) (let ((.def_127 (< .def_126 (- 1)))) (let ((.def_128 (and .def_127 A8))) (let ((.def_129 (not .def_128))) (let ((.def_130 (or .def_129 .def_125))) (let ((.def_131 (and .def_10 .def_40))) (let ((.def_132 (not .def_131))) (let ((.def_133 (+ .def_99 .def_30))) (let ((.def_134 (< .def_133 1))) (let ((.def_135 (not .def_134))) (let ((.def_136 (+ .def_99 .def_20))) (let ((.def_137 (< .def_136 1))) (let ((.def_138 (not .def_137))) (let ((.def_139 (and .def_138 .def_135))) (let ((.def_140 (and .def_139 .def_132))) (let ((.def_141 (or .def_140 .def_130))) (let ((.def_142 (and .def_141 .def_124))) (let ((.def_143 (* 1 x4))) (let ((.def_144 (+ .def_143 .def_0))) (let ((.def_145 (< .def_144 1))) (let ((.def_146 (or .def_35 .def_145))) (let ((.def_147 (+ .def_64 .def_1))) (let ((.def_148 (< .def_147 1))) (let ((.def_149 (+ .def_42 .def_99))) (let ((.def_150 (< .def_149 (- 1)))) (let ((.def_151 (and .def_150 .def_148))) (let ((.def_152 (and .def_151 .def_146))) (let ((.def_153 (not .def_152))) (let ((.def_154 (* (- 1) x6))) (let ((.def_155 (+ .def_154 .def_56))) (let ((.def_156 (< .def_155 1))) (let ((.def_157 (not .def_156))) (let ((.def_158 (+ .def_1 .def_83))) (let ((.def_159 (< .def_158 1))) (let ((.def_160 (not .def_159))) (let ((.def_161 (or .def_160 .def_157))) (let ((.def_162 (not A6))) (let ((.def_163 (or A9 .def_162))) (let ((.def_164 (or .def_163 .def_161))) (let ((.def_165 (not .def_164))) (let ((.def_166 (and .def_165 .def_153))) (let ((.def_167 (and A8 .def_120))) (let ((.def_168 (not .def_167))) (let ((.def_169 (+ .def_56 .def_19))) (let ((.def_170 (< .def_169 (- 1)))) (let ((.def_171 (not .def_170))) (let ((.def_172 (or A4 .def_171))) (let ((.def_173 (or .def_172 .def_168))) (let ((.def_174 (+ .def_30 .def_42))) (let ((.def_175 (< .def_174 (- 1)))) (let ((.def_176 (not .def_175))) (let ((.def_177 (< .def_94 (- 1)))) (let ((.def_178 (not .def_177))) (let ((.def_179 (and .def_178 .def_176))) (let ((.def_180 (not .def_179))) (let ((.def_181 (+ .def_0 .def_1))) (let ((.def_182 (< .def_181 (- 1)))) (let ((.def_183 (+ .def_99 .def_50))) (let ((.def_184 (< .def_183 1))) (let ((.def_185 (not .def_184))) (let ((.def_186 (= .def_185 .def_182))) (let ((.def_187 (not .def_186))) (let ((.def_188 (or .def_187 .def_180))) (let ((.def_189 (not .def_188))) (let ((.def_190 (or .def_189 .def_173))) (let ((.def_191 (not .def_190))) (let ((.def_192 (or .def_191 .def_166))) (let ((.def_193 (or .def_192 .def_142))) (let ((.def_194 (or .def_193 .def_108))) (let ((.def_195 (not .def_194))) (let ((.def_196 (or A4 .def_35))) (let ((.def_197 (< .def_68 (- 1)))) (let ((.def_198 (not .def_197))) (let ((.def_199 (< .def_93 (- 1)))) (let ((.def_200 (not .def_199))) (let ((.def_201 (or .def_200 .def_198))) (let ((.def_202 (and .def_201 .def_196))) (let ((.def_203 (not .def_202))) (let ((.def_204 (< .def_83 1))) (let ((.def_205 (not .def_204))) (let ((.def_206 (or .def_205 A8))) (let ((.def_207 (not .def_206))) (let ((.def_208 (= A1 .def_87))) (let ((.def_209 (and .def_208 .def_207))) (let ((.def_210 (not .def_209))) (let ((.def_211 (or .def_210 .def_203))) (let ((.def_212 (not .def_211))) (let ((.def_213 (< .def_50 1))) (let ((.def_214 (not .def_213))) (let ((.def_215 (and .def_29 .def_214))) (let ((.def_216 (not .def_215))) (let ((.def_217 (< .def_5 1))) (let ((.def_218 (or .def_87 .def_217))) (let ((.def_219 (and .def_218 .def_216))) (let ((.def_220 (not .def_219))) (let ((.def_221 (or .def_29 .def_29))) (let ((.def_222 (< .def_50 (- 1)))) (let ((.def_223 (and .def_10 .def_222))) (let ((.def_224 (not .def_223))) (let ((.def_225 (or .def_224 .def_221))) (let ((.def_226 (not .def_225))) (let ((.def_227 (= .def_226 .def_220))) (let ((.def_228 (or .def_227 .def_212))) (let ((.def_229 (+ .def_63 .def_143))) (let ((.def_230 (< .def_229 (- 1)))) (let ((.def_231 (+ .def_88 .def_19))) (let ((.def_232 (< .def_231 (- 1)))) (let ((.def_233 (or .def_232 .def_230))) (let ((.def_234 (not .def_233))) (let ((.def_235 (or A4 A3))) (let ((.def_236 (not .def_235))) (let ((.def_237 (or .def_236 .def_234))) (let ((.def_238 (not .def_237))) (let ((.def_239 (and A2 A3))) (let ((.def_240 (+ .def_73 .def_1))) (let ((.def_241 (< .def_240 1))) (let ((.def_242 (not .def_241))) (let ((.def_243 (or .def_87 .def_242))) (let ((.def_244 (not .def_243))) (let ((.def_245 (or .def_244 .def_239))) (let ((.def_246 (not .def_245))) (let ((.def_247 (and .def_246 .def_238))) (let ((.def_248 (not .def_247))) (let ((.def_249 (and .def_10 A8))) (let ((.def_250 (or .def_29 .def_40))) (let ((.def_251 (or .def_250 .def_249))) (let ((.def_252 (not .def_251))) (let ((.def_253 (and .def_35 A8))) (let ((.def_254 (and .def_162 .def_11))) (let ((.def_255 (not .def_254))) (let ((.def_256 (or .def_255 .def_253))) (let ((.def_257 (not .def_256))) (let ((.def_258 (and .def_257 .def_252))) (let ((.def_259 (and .def_258 .def_248))) (let ((.def_260 (and .def_259 .def_228))) (let ((.def_261 (not .def_260))) (let ((.def_262 (+ .def_68 .def_64))) (let ((.def_263 (< .def_262 1))) (let ((.def_264 (< .def_19 1))) (let ((.def_265 (and .def_264 .def_263))) (let ((.def_266 (not .def_265))) (let ((.def_267 (and A5 A1))) (let ((.def_268 (or .def_267 .def_266))) (let ((.def_269 (< .def_136 (- 1)))) (let ((.def_270 (not .def_269))) (let ((.def_271 (or .def_222 .def_270))) (let ((.def_272 (not .def_271))) (let ((.def_273 (and A9 .def_11))) (let ((.def_274 (not .def_273))) (let ((.def_275 (and .def_274 .def_272))) (let ((.def_276 (not .def_275))) (let ((.def_277 (= .def_276 .def_268))) (let ((.def_278 (< .def_88 1))) (let ((.def_279 (not .def_278))) (let ((.def_280 (or .def_279 .def_110))) (let ((.def_281 (not .def_280))) (let ((.def_282 (< .def_51 (- 1)))) (let ((.def_283 (or .def_11 .def_282))) (let ((.def_284 (not .def_283))) (let ((.def_285 (and .def_284 .def_281))) (let ((.def_286 (+ .def_1 .def_88))) (let ((.def_287 (< .def_286 (- 1)))) (let ((.def_288 (not .def_287))) (let ((.def_289 (and .def_87 .def_288))) (let ((.def_290 (not .def_289))) (let ((.def_291 (+ .def_50 .def_1))) (let ((.def_292 (< .def_291 (- 1)))) (let ((.def_293 (not .def_292))) (let ((.def_294 (and .def_293 .def_29))) (let ((.def_295 (not .def_294))) (let ((.def_296 (or .def_295 .def_290))) (let ((.def_297 (or .def_296 .def_285))) (let ((.def_298 (and .def_297 .def_277))) (let ((.def_299 (< .def_1 1))) (let ((.def_300 (not .def_299))) (let ((.def_301 (or .def_40 .def_300))) (let ((.def_302 (not .def_301))) (let ((.def_303 (+ .def_68 .def_143))) (let ((.def_304 (< .def_303 (- 1)))) (let ((.def_305 (not .def_304))) (let ((.def_306 (and A7 .def_305))) (let ((.def_307 (not .def_306))) (let ((.def_308 (and .def_307 .def_302))) (let ((.def_309 (not .def_308))) (let ((.def_310 (< .def_56 (- 1)))) (let ((.def_311 (not .def_310))) (let ((.def_312 (< .def_1 (- 1)))) (let ((.def_313 (not .def_312))) (let ((.def_314 (or .def_313 .def_311))) (let ((.def_315 (not .def_314))) (let ((.def_316 (+ .def_154 .def_0))) (let ((.def_317 (< .def_316 1))) (let ((.def_318 (or A3 .def_317))) (let ((.def_319 (and .def_318 .def_315))) (let ((.def_320 (or .def_319 .def_309))) (let ((.def_321 (< .def_143 (- 1)))) (let ((.def_322 (not .def_321))) (let ((.def_323 (+ .def_42 .def_88))) (let ((.def_324 (< .def_323 (- 1)))) (let ((.def_325 (not .def_324))) (let ((.def_326 (or .def_325 .def_322))) (let ((.def_327 (and .def_36 .def_87))) (let ((.def_328 (or .def_327 .def_326))) (let ((.def_329 (not .def_328))) (let ((.def_330 (and A1 .def_16))) (let ((.def_331 (not .def_330))) (let ((.def_332 (+ .def_0 .def_20))) (let ((.def_333 (< .def_332 1))) (let ((.def_334 (not .def_333))) (let ((.def_335 (+ .def_1 .def_64))) (let ((.def_336 (< .def_335 (- 1)))) (let ((.def_337 (or .def_336 .def_334))) (let ((.def_338 (not .def_337))) (let ((.def_339 (or .def_338 .def_331))) (let ((.def_340 (not .def_339))) (let ((.def_341 (or .def_340 .def_329))) (let ((.def_342 (not .def_341))) (let ((.def_343 (or .def_342 .def_320))) (let ((.def_344 (or .def_343 .def_298))) (let ((.def_345 (not .def_344))) (let ((.def_346 (= .def_345 .def_261))) (let ((.def_347 (not .def_346))) (let ((.def_348 (and .def_347 .def_195))) (let ((.def_349 (not .def_348))) (let ((.def_350 (<= x9 1))) (let ((.def_351 (<= 0 x9))) (let ((.def_352 (<= x8 1))) (let ((.def_353 (<= 0 x8))) (let ((.def_354 (<= x7 1))) (let ((.def_355 (<= 0 x7))) (let ((.def_356 (<= x6 1))) (let ((.def_357 (<= 0 x6))) (let ((.def_358 (<= x5 1))) (let ((.def_359 (<= 0 x5))) (let ((.def_360 (<= x4 1))) (let ((.def_361 (<= 0 x4))) (let ((.def_362 (<= x3 1))) (let ((.def_363 (<= 0 x3))) (let ((.def_364 (<= x2 1))) (let ((.def_365 (<= 0 x2))) (let ((.def_366 (<= x1 1))) (let ((.def_367 (<= 0 x1))) (let ((.def_368 (<= x0 1))) (let ((.def_369 (<= 0 x0))) (let ((.def_370 (and .def_369 .def_368 .def_367 .def_366 .def_365 .def_364 .def_363 .def_362 .def_361 .def_360 .def_359 .def_358 .def_357 .def_356 .def_355 .def_354 .def_353 .def_352 .def_351 .def_350 .def_349))) .def_370))))))))))))))))))))))))))))))))))))))))))))))))))))))))))))))))))))))))))))))))))))))))))))))))))))))))))))))))))))))))))))))))))))))))))))))))))))))))))))))))))))))))))))))))))))))))))))))))))))))))))))))))))))))))))))))))))))))))))))))))))))))))))))))))))))))))))))))))))))))))))))))))))))))))))))))))))))))))))))))))))))))))))))))))))))))))))))))))))))))))))))))))))))
(check-sat)
